Minimize
  - 67 y_0 - 30 y_1 - 64 y_2 - 75 y_3 - 34 y_4 - 63 y_5 - 52 y_6 - 52 y_7
   - 36 y_8 - 26 y_9 - 56 y_10 - 37 y_11 - 75 y_12 - 38 y_13 - 73 y_14
   - 52 y_16 - 49 y_17 - 43 y_18 - 30 y_19 + 952 Constant
Subject To
 c_0: y_19 = 1
 c_1_0: y_0 + y_3 + y_7 + y_12 + y_14 + y_17 >= 1
 c_1_1: y_1 >= 1
 c_1_2: y_2 >= 1
 c_1_3: y_0 + y_3 + y_12 + y_14 >= 1
 c_1_4: y_4 + y_11 + y_18 >= 1
 c_1_5: y_5 + y_10 >= 1
 c_1_6: y_6 + y_7 + y_13 + y_17 >= 1
 c_1_7: y_0 + y_6 + y_7 + y_13 + y_17 >= 1
 c_1_8: y_8 + y_9 + y_19 >= 1
 c_1_9: y_8 + y_9 + y_19 >= 1
 c_1_10: y_5 + y_10 >= 1
 c_1_11: y_4 + y_11 + y_18 >= 1
 c_1_12: y_0 + y_3 + y_12 + y_14 >= 1
 c_1_13: y_6 + y_7 + y_13 + y_17 >= 1
 c_1_14: y_0 + y_3 + y_12 + y_14 >= 1
 c_1_15: y_15 >= 1
 c_1_16: y_16 >= 1
 c_1_17: y_0 + y_6 + y_7 + y_13 + y_17 >= 1
 c_1_18: y_4 + y_11 + y_18 >= 1
 c_1_19: y_8 + y_9 + y_19 >= 1
Bounds
 Constant = 1
Binaries
 y_0 y_1 y_2 y_3 y_4 y_5 y_6 y_7 y_8 y_9 y_10 y_11 y_12 y_13 y_14 y_15 y_16
 y_17 y_18 y_19
End
